828435
64,5,3,2,27,67,61,58,82,16,15,83,35,97,42,89,85,8,53,91,44,55,72,68,13,63,93,62,49,10,56,18,69,75,6,41,77,30,96,21,20,60,31,32,70,74,37,80,99,36,50,88,38,76,87,45,86,81,14,39,92,84,22,7,66,4,48,1,9,33,57,47,95,73,25,78,51,79,29,40,94,26,17,12,19,59,90,24,43,52,65,54,98,23,11,28,46,71,34